unknown
(model
; cardinality of BoundSet is 3
(declare-sort BoundSet 0)
; rep: @uc_BoundSet_0
; rep: @uc_BoundSet_1
; rep: @uc_BoundSet_2
; cardinality of UnboundSet is 1
(declare-sort UnboundSet 0)
(declare-fun groundTerm_4 () UnboundSet)
(define-fun IsIncreased ((BOUND_VARIABLE_417 BoundSet)) Bool true)
(define-fun IsNotMaterialized ((BOUND_VARIABLE_425 BoundSet) (BOUND_VARIABLE_426 BoundSet)) Bool false)
(define-fun IsLessFrequent ((BOUND_VARIABLE_417 BoundSet)) Bool false)
(define-fun IsInGulfOfMexico ((BOUND_VARIABLE_417 BoundSet)) Bool false)
(define-fun IsInCenturiesPast ((BOUND_VARIABLE_417 BoundSet)) Bool false)
)
sat
(model
; cardinality of BoundSet is 1
(declare-sort BoundSet 0)
; rep: @uc_BoundSet_0
; cardinality of UnboundSet is 1
(declare-sort UnboundSet 0)
(declare-fun groundTerm_6 () UnboundSet)
(define-fun IsIncreased ((BOUND_VARIABLE_450 BoundSet)) Bool true)
(define-fun IsNotMaterialized ((BOUND_VARIABLE_458 BoundSet) (BOUND_VARIABLE_459 BoundSet)) Bool false)
(define-fun IsLessFrequent ((BOUND_VARIABLE_450 BoundSet)) Bool false)
(define-fun IsInGulfOfMexico ((BOUND_VARIABLE_450 BoundSet)) Bool false)
(define-fun IsInCenturiesPast ((BOUND_VARIABLE_450 BoundSet)) Bool false)
)
